PROBLEM NAME: 	st70-TTP
KNAPSACK DATA TYPE: uncorrelated
DIMENSION:	10
NUMBER OF ITEMS: 	9
CAPACITY OF KNAPSACK: 	32831
MIN SPEED: 	0.1
MAX SPEED: 	1
RENTING RATIO: 	15.88
EDGE_WEIGHT_TYPE:	CEIL_2D
NODE_COORD_SECTION	(INDEX, X, Y): 
1	64	96
2	80	39
3	69	23
4	72	42
5	48	67
6	58	43
7	81	34
8	79	17
9	30	23
10	42	67
ITEMS SECTION	(INDEX, PROFIT, WEIGHT, ASSIGNED NODE NUMBER): 
1	119	1	2
2	187	896	3
3	997	367	4
4	22	690	5
5	347	613	6
6	522	874	7
7	730	122	8
8	705	486	9
9	232	823	10
